s td 30 4 33
b 1 1 2 12
b 2 10 11 22
b 3 12 23 24
b 4 2 12 13 24
b 5 22 32 33
b 6 10 21 22 32
b 7 2 3 13 24
b 8 3 13 14 24
b 9 3 14 24 25
b 10 3 4 14 25
b 11 4 14 15 25
b 12 4 15 25 26
b 13 4 5 15 26
b 14 5 15 16 26
b 15 5 16 26 27
b 16 5 6 16 27
b 17 6 16 17 27
b 18 6 17 27 28
b 19 6 7 17 28
b 20 7 17 18 28
b 21 7 18 28 29
b 22 7 8 18 29
b 23 8 18 19 29
b 24 8 19 29 30
b 25 8 9 19 30
b 26 9 19 20 30
b 27 9 20 30 31
b 28 9 10 20 31
b 29 10 20 21 31
b 30 10 21 31 32
1 4
2 6
3 4
4 7
5 6
6 30
7 8
8 9
9 10
10 11
11 12
12 13
13 14
14 15
15 16
16 17
17 18
18 19
19 20
20 21
21 22
22 23
23 24
24 25
25 26
26 27
27 28
28 29
29 30
